c *********************************
c * Circuit generated by BenCGen
c *
c * CarrySaveMultiplier_5
c *
c * Ports with 1 gate(s): 2
c * Ports with 2 gate(s): 121
c * Total gates: 123
c *********************************
p cnf 133 407
1 22 0
-1 -22 0
1 -21 0
22 -21 0
-1 -22 21 0
1 -23 0
6 -23 0
-1 -6 23 0
2 -24 0
6 -24 0
-2 -6 24 0
3 -25 0
6 -25 0
-3 -6 25 0
4 -26 0
6 -26 0
-4 -6 26 0
5 -27 0
6 -27 0
-5 -6 27 0
1 -28 0
7 -28 0
-1 -7 28 0
2 -29 0
7 -29 0
-2 -7 29 0
3 -30 0
7 -30 0
-3 -7 30 0
4 -31 0
7 -31 0
-4 -7 31 0
5 -32 0
7 -32 0
-5 -7 32 0
1 -33 0
8 -33 0
-1 -8 33 0
2 -34 0
8 -34 0
-2 -8 34 0
3 -35 0
8 -35 0
-3 -8 35 0
4 -36 0
8 -36 0
-4 -8 36 0
5 -37 0
8 -37 0
-5 -8 37 0
1 -38 0
9 -38 0
-1 -9 38 0
2 -39 0
9 -39 0
-2 -9 39 0
3 -40 0
9 -40 0
-3 -9 40 0
4 -41 0
9 -41 0
-4 -9 41 0
5 -42 0
9 -42 0
-5 -9 42 0
1 -43 0
10 -43 0
-1 -10 43 0
2 -44 0
10 -44 0
-2 -10 44 0
3 -45 0
10 -45 0
-3 -10 45 0
4 -46 0
10 -46 0
-4 -10 46 0
5 -47 0
10 -47 0
-5 -10 47 0
23 -11 0
-23 11 0
24 28 -12 0
-24 28 12 0
24 -28 12 0
-24 -28 -12 0
24 -52 0
28 -52 0
-24 -28 52 0
25 29 -48 0
-25 29 48 0
25 -29 48 0
-25 -29 -48 0
25 -53 0
29 -53 0
-25 -29 53 0
26 30 -49 0
-26 30 49 0
26 -30 49 0
-26 -30 -49 0
26 -54 0
30 -54 0
-26 -30 54 0
27 31 -50 0
-27 31 50 0
27 -31 50 0
-27 -31 -50 0
27 -55 0
31 -55 0
-27 -31 55 0
21 32 -51 0
-21 32 51 0
21 -32 51 0
-21 -32 -51 0
21 -56 0
32 -56 0
-21 -32 56 0
37 56 -60 0
-37 56 60 0
37 -56 60 0
-37 -56 -60 0
37 -77 0
56 -77 0
-37 -56 77 0
42 77 -81 0
-42 77 81 0
42 -77 81 0
-42 -77 -81 0
42 -98 0
77 -98 0
-42 -77 98 0
47 98 -102 0
-47 98 102 0
47 -98 102 0
-47 -98 -102 0
47 -119 0
98 -119 0
-47 -98 119 0
103 99 -16 0
-103 99 16 0
103 -99 16 0
-103 -99 -16 0
103 -120 0
99 -120 0
-103 -99 120 0
119 129 -20 0
-119 129 20 0
119 -129 20 0
-119 -129 -20 0
119 -133 0
129 -133 0
-119 -129 133 0
33 48 -62 0
-33 48 62 0
33 -48 62 0
-33 -48 -62 0
62 52 -13 0
-62 52 13 0
62 -52 13 0
-62 -52 -13 0
52 -63 0
62 -63 0
-52 -62 63 0
48 -64 0
33 -64 0
-48 -33 64 0
-63 61 0
-64 61 0
63 64 -61 0
34 49 -66 0
-34 49 66 0
34 -49 66 0
-34 -49 -66 0
66 53 -57 0
-66 53 57 0
66 -53 57 0
-66 -53 -57 0
53 -67 0
66 -67 0
-53 -66 67 0
49 -68 0
34 -68 0
-49 -34 68 0
-67 65 0
-68 65 0
67 68 -65 0
35 50 -70 0
-35 50 70 0
35 -50 70 0
-35 -50 -70 0
70 54 -58 0
-70 54 58 0
70 -54 58 0
-70 -54 -58 0
54 -71 0
70 -71 0
-54 -70 71 0
50 -72 0
35 -72 0
-50 -35 72 0
-71 69 0
-72 69 0
71 72 -69 0
36 51 -74 0
-36 51 74 0
36 -51 74 0
-36 -51 -74 0
74 55 -59 0
-74 55 59 0
74 -55 59 0
-74 -55 -59 0
55 -75 0
74 -75 0
-55 -74 75 0
51 -76 0
36 -76 0
-51 -36 76 0
-75 73 0
-76 73 0
75 76 -73 0
38 57 -83 0
-38 57 83 0
38 -57 83 0
-38 -57 -83 0
83 61 -14 0
-83 61 14 0
83 -61 14 0
-83 -61 -14 0
61 -84 0
83 -84 0
-61 -83 84 0
57 -85 0
38 -85 0
-57 -38 85 0
-84 82 0
-85 82 0
84 85 -82 0
39 58 -87 0
-39 58 87 0
39 -58 87 0
-39 -58 -87 0
87 65 -78 0
-87 65 78 0
87 -65 78 0
-87 -65 -78 0
65 -88 0
87 -88 0
-65 -87 88 0
58 -89 0
39 -89 0
-58 -39 89 0
-88 86 0
-89 86 0
88 89 -86 0
40 59 -91 0
-40 59 91 0
40 -59 91 0
-40 -59 -91 0
91 69 -79 0
-91 69 79 0
91 -69 79 0
-91 -69 -79 0
69 -92 0
91 -92 0
-69 -91 92 0
59 -93 0
40 -93 0
-59 -40 93 0
-92 90 0
-93 90 0
92 93 -90 0
41 60 -95 0
-41 60 95 0
41 -60 95 0
-41 -60 -95 0
95 73 -80 0
-95 73 80 0
95 -73 80 0
-95 -73 -80 0
73 -96 0
95 -96 0
-73 -95 96 0
60 -97 0
41 -97 0
-60 -41 97 0
-96 94 0
-97 94 0
96 97 -94 0
43 78 -104 0
-43 78 104 0
43 -78 104 0
-43 -78 -104 0
104 82 -15 0
-104 82 15 0
104 -82 15 0
-104 -82 -15 0
82 -105 0
104 -105 0
-82 -104 105 0
78 -106 0
43 -106 0
-78 -43 106 0
-105 103 0
-106 103 0
105 106 -103 0
44 79 -108 0
-44 79 108 0
44 -79 108 0
-44 -79 -108 0
108 86 -99 0
-108 86 99 0
108 -86 99 0
-108 -86 -99 0
86 -109 0
108 -109 0
-86 -108 109 0
79 -110 0
44 -110 0
-79 -44 110 0
-109 107 0
-110 107 0
109 110 -107 0
45 80 -112 0
-45 80 112 0
45 -80 112 0
-45 -80 -112 0
112 90 -100 0
-112 90 100 0
112 -90 100 0
-112 -90 -100 0
90 -113 0
112 -113 0
-90 -112 113 0
80 -114 0
45 -114 0
-80 -45 114 0
-113 111 0
-114 111 0
113 114 -111 0
46 81 -116 0
-46 81 116 0
46 -81 116 0
-46 -81 -116 0
116 94 -101 0
-116 94 101 0
116 -94 101 0
-116 -94 -101 0
94 -117 0
116 -117 0
-94 -116 117 0
81 -118 0
46 -118 0
-81 -46 118 0
-117 115 0
-118 115 0
117 118 -115 0
107 100 -122 0
-107 100 122 0
107 -100 122 0
-107 -100 -122 0
122 120 -17 0
-122 120 17 0
122 -120 17 0
-122 -120 -17 0
120 -123 0
122 -123 0
-120 -122 123 0
100 -124 0
107 -124 0
-100 -107 124 0
-123 121 0
-124 121 0
123 124 -121 0
111 101 -126 0
-111 101 126 0
111 -101 126 0
-111 -101 -126 0
126 121 -18 0
-126 121 18 0
126 -121 18 0
-126 -121 -18 0
121 -127 0
126 -127 0
-121 -126 127 0
101 -128 0
111 -128 0
-101 -111 128 0
-127 125 0
-128 125 0
127 128 -125 0
115 102 -130 0
-115 102 130 0
115 -102 130 0
-115 -102 -130 0
130 125 -19 0
-130 125 19 0
130 -125 19 0
-130 -125 -19 0
125 -131 0
130 -131 0
-125 -130 131 0
102 -132 0
115 -132 0
-102 -115 132 0
-131 129 0
-132 129 0
131 132 -129 0
